DATASET = "thpack7";
INSTANCE = "039";

WIDTH = 233;
HEIGHT = 220;
LENGTH = 587;

NO_OF_SHAPES = 20;
size = [|
  89,56,45 |
  53,37,34 |
  54,35,25 |
  73,39,33 |
  73,39,38 |
  50,42,29 |
  62,59,54 |
  98,53,44 |
  94,32,31 |
  97,64,28 |
  102,77,42 |
  80,75,44 |
  93,52,41 |
  77,51,38 |
  57,54,52 |
  105,97,46 |
  103,76,54 |
  72,53,34 |
  42,38,35 |
  61,58,46 |
|];

verticality = [|
  1,1,1 |
  1,1,1 |
  0,1,1 |
  0,1,1 |
  1,1,1 |
  1,1,1 |
  1,1,1 |
  0,1,1 |
  0,1,1 |
  0,0,1 |
  0,1,1 |
  1,1,1 |
  0,1,1 |
  0,1,1 |
  1,1,1 |
  0,0,1 |
  1,1,1 |
  0,1,1 |
  1,1,1 |
  1,1,1 |
|];

box_count = [
  12,
  7,
  8,
  10,
  6,
  8,
  10,
  5,
  10,
  10,
  8,
  3,
  13,
  5,
  8,
  8,
  9,
  7,
  12,
  8,
];
